(set-info :smt-lib-version 2.7)
(set-logic ALL)
(set-info :source |
Generated on: 2026-06-22
Generator: pog2smtlib-2.7 github.com/CLEARSY/pog2smtlib-2.7 (-l HO_ALL -rpX)
Application: Discharging a proof obligation generated by aTelierB from an anonymized B machine
Target solver: CVC5
Time limit: 1200.0
|)
(set-info :license "www.gnu.org/licenses/gpl-3.0.en.html")
(set-info :category "industrial")
(set-info :status unknown)

(define-sort |Z| () Int)
(declare-sort P 1)
(declare-datatype |s0| ((s1)(s2)(s3)(s4)(s5)(s6)(s7)(s8)))
(define-sort |POW Z| () (P |Z|))
(define-sort |POW s0| () (P |s0|))
(define-sort |BOOL| () Bool)
(declare-fun |set.in Z| (|Z| |POW Z|) Bool)
(declare-fun |set.in s0| (|s0| |POW s0|) Bool)
(define-const MAXINT |Z| 2147483647)
(declare-const s27 |POW Z|)
(declare-const s17 |Z|)
(declare-const s20 |BOOL|)
(declare-const s27$1 |POW Z|)
(declare-const s23 |Z|)
(declare-const s21 |BOOL|)
(declare-const s12 |Z|)
(declare-const s16 |Z|)
(declare-const s18 |Z|)
(declare-const s34$1 |Z|)
(declare-const s22 |BOOL|)
(declare-const s19 |BOOL|)
(declare-const s14 |Z|)
(declare-const s25$1 |POW Z|)
(declare-const s26$1 |POW Z|)
(declare-const s21$1 |BOOL|)
(declare-const s24 |POW Z|)
(declare-const s11 |Z|)
(declare-const s31$1 |Z|)
(declare-const s24$1 |POW Z|)
(declare-const s22$1 |BOOL|)
(declare-const s25 |POW Z|)
(declare-const s33$1 |Z|)
(declare-const s19$1 |BOOL|)
(declare-const s23$1 |Z|)
(declare-const s29$1 |s0|)
(declare-const s20$1 |BOOL|)
(declare-const s15 |Z|)
(declare-const s32$1 |Z|)
(declare-const s30$1 |Z|)
(declare-const s13 |Z|)
(declare-const s26 |POW Z|)
(declare-const NATURAL |POW Z|)
(assert (!
  (forall ((e |Z|)) (= (|set.in Z| e NATURAL) (<= 0 e)))
  :named |ax.set.in.NATURAL|))
(assert (!
  (forall ((s |POW Z|) (t |POW Z|))
    (=
      (= s t)
      (forall ((e |Z|)) (= (|set.in Z| e s) (|set.in Z| e t)))))
  :named |ax.set.eq Z|))
(declare-const |set.empty Z| |POW Z|)
(assert (!
  (forall ((e |Z|)) (not (|set.in Z| e |set.empty Z|)))
  :named |ax.set.in.empty Z|))
(declare-fun |set.inter Z| (|POW Z| |POW Z|) |POW Z|)
(assert (!
  (forall ((e |Z|) (s |POW Z|) (t |POW Z|))
    (= (|set.in Z| e (|set.inter Z| s t))
       (and (|set.in Z| e s) (|set.in Z| e t))))
  :named |ax.set.in.inter Z|))
(define-sort |? s0| () (-> |s0| Bool))
(declare-const |set.intent s0| (-> |? s0| |POW s0|))
(assert (!
  (forall ((p |? s0|))
    (forall ((x |s0|))
      (= (|set.in s0| x (|set.intent s0| p))
         (@ p x))))
  :named |ax:set.in.intent s0|))
(declare-fun |set.union Z| (|POW Z| |POW Z|) |POW Z|)
(assert (!
  (forall ((e |Z|) (s |POW Z|) (t |POW Z|))
    (= (|set.in Z| e (|set.union Z| s t))
       (or (|set.in Z| e s) (|set.in Z| e t))))
  :named |ax.set.in.union Z|))
(declare-fun |set.subseteq Z| (|POW Z| |POW Z|) Bool)
(assert (!
    (forall ((s |POW Z|) (t |POW Z|))
      (=
        (|set.subseteq Z| s t)
        (forall ((e |Z|)) (=> (|set.in Z| e s) (|set.in Z| e t)))
      )
    )
    :named |ax.set.subseteq Z|))
(declare-fun |interval| (|Z| |Z|) |POW Z|)
 (assert (!
    (forall ((l |Z|) (u |Z|) (e |Z|))
        (= (|set.in Z| e (|interval| l u))
            (and (<= l e) (<= e u))))
    :named |ax.set.in.interval|))
(declare-const NAT |POW Z|)
(assert (!
  (forall ((e |Z|)) (= (|set.in Z| e NAT) (and (<= 0 e) (<= e MAXINT))))
  :named |ax.set.in.NAT|))
(assert (!
  (= s29$1 s7)
  :named |Local_Hyp:21|))
(assert (!
  (= s19$1 false)
  :named |Local_Hyp:1|))
(assert (!
  (= s20$1 true)
  :named |Local_Hyp:2|))
(assert (!
  (= s21$1 false)
  :named |Local_Hyp:26|))
(assert (!
  (= s22$1 false)
  :named |Local_Hyp:4|))
(assert (!
  (|set.in Z| s23$1 NATURAL)
  :named |Define:abs:4|))
(assert (!
  (|set.subseteq Z| s24$1 NATURAL)
  :named |Define:abs:5|))
(assert (!
  (forall
  ((s28 |Z|))
  (=>
    (and
      (|set.in Z| s28 NATURAL)
      (> s28 s23$1))
    (not
      (|set.in Z| s28 s24$1))))
  :named |Define:abs:9|))
(assert (!
  (forall
  ((s28 |Z|))
  (=>
    (and
      (|set.in Z| s28 NATURAL)
      (> s28 s23$1))
    (not
      (|set.in Z| s28 s25$1))))
  :named |Define:abs:10|))
(assert (!
  (forall
  ((s28 |Z|))
  (=>
    (and
      (|set.in Z| s28 NATURAL)
      (> s28 s23$1))
    (not
      (|set.in Z| s28 s26$1))))
  :named |Define:abs:11|))
(assert (!
  (forall
  ((s28 |Z|))
  (=>
    (and
      (|set.in Z| s28 NATURAL)
      (> s28 s23$1))
    (not
      (|set.in Z| s28 s27$1))))
  :named |Define:abs:12|))
(assert (!
  (= (|set.inter Z| s25$1 s24$1) |set.empty Z|)
  :named |Define:abs:13|))
(assert (!
  (= (|set.inter Z| s26$1 s24$1) |set.empty Z|)
  :named |Define:abs:14|))
(assert (!
  (= (|set.inter Z| s27$1 s24$1) |set.empty Z|)
  :named |Define:abs:15|))
(assert (!
  (= s19 s19$1)
  :named |Define:inv:0|))
(assert (!
  (= s20 s20$1)
  :named |Define:inv:1|))
(assert (!
  (= s21 s21$1)
  :named |Define:inv:2|))
(assert (!
  (= s22 s22$1)
  :named |Define:inv:3|))
(assert (!
  (= s24 s24$1)
  :named |Define:inv:4|))
(assert (!
  (= s23 s23$1)
  :named |Define:inv:8|))
(assert (!
  (|set.in Z| s23$1 NATURAL)
  :named |Define:inv:9|))
(assert (!
  (|set.subseteq Z| s24$1 NATURAL)
  :named |Define:inv:10|))
(assert (!
  (=>
  (|set.in s0| s29$1 (|set.intent s0| (lambda ((_c0 |s0|)) (or (= _c0 s2)(= _c0 s3)(= _c0 s4)(= _c0 s5)(= _c0 s6)(= _c0 s7)(= _c0 s8)))))
  (|set.in Z| s30$1 (|interval| 1 s23$1)))
  :named |Define:inv:20|))
(assert (!
  (=>
  (= s29$1 s2)
  (|set.subseteq Z| (|interval| s30$1 s23$1) s25$1))
  :named |Define:inv:21|))
(assert (!
  (=>
  (= s29$1 s2)
  (>= s18 (- (+ s23$1 1) s30$1)))
  :named |Define:inv:22|))
(assert (!
  (=>
  (|set.in s0| s29$1 (|set.intent s0| (lambda ((_c0 |s0|)) (or (= _c0 s3)(= _c0 s4)(= _c0 s5)(= _c0 s6)(= _c0 s7)(= _c0 s8)))))
  (and
    (|set.in Z| s30$1 (|interval| 1 s23$1))
    (|set.in Z| s31$1 (|interval| s30$1 s23$1))
    (|set.subseteq Z| (|interval| s30$1 s31$1) s25$1)
    (not
      (|set.in Z| (+ s31$1 1) s25$1))
    (= (- s31$1 s30$1) s18)))
  :named |Define:inv:23|))
(assert (!
  (=>
  (= s29$1 s3)
  (and
    (= s31$1 s23$1)
    (|set.in Z| s23$1 s25$1)))
  :named |Define:inv:24|))
(assert (!
  (=>
  (|set.in s0| s29$1 (|set.intent s0| (lambda ((_c0 |s0|)) (or (= _c0 s4)(= _c0 s5)(= _c0 s6)(= _c0 s7)(= _c0 s8)))))
  (and
    (|set.in Z| s30$1 (|interval| 1 s23$1))
    (|set.in Z| s31$1 (|interval| s30$1 s23$1))
    (|set.subseteq Z| (|interval| s30$1 s31$1) s25$1)
    (= (- s31$1 s30$1) s18)
    (|set.subseteq Z| (|interval| (+ s31$1 1) s23$1) (|set.union Z| (|set.union Z| (|set.union Z| s24$1 s25$1) s26$1) s27$1))))
  :named |Define:inv:25|))
(assert (!
  (=>
  (= s29$1 s4)
  (and
    (= s32$1 s23$1)
    (|set.subseteq Z| (|interval| (+ s31$1 1) s23$1) (|set.union Z| s25$1 s27$1))))
  :named |Define:inv:26|))
(assert (!
  (=>
  (|set.in s0| s29$1 (|set.intent s0| (lambda ((_c0 |s0|)) (or (= _c0 s4)(= _c0 s5)(= _c0 s6)(= _c0 s7)(= _c0 s8)))))
  (and
    (< s31$1 s23$1)
    (|set.in Z| s32$1 (|interval| s31$1 s23$1))
    (<= (- (- s32$1 s31$1) 1) s14)
    (|set.subseteq Z| (|interval| (+ s31$1 1) s32$1) (|set.union Z| s25$1 s27$1))))
  :named |Define:inv:27|))
(assert (!
  (=>
  (= s29$1 s5)
  (= s33$1 s23$1))
  :named |Define:inv:28|))
(assert (!
  (=>
  (|set.in s0| s29$1 (|set.intent s0| (lambda ((_c0 |s0|)) (or (= _c0 s5)(= _c0 s6)(= _c0 s7)(= _c0 s8)))))
  (and
    (|set.in Z| s33$1 (|interval| s32$1 s23$1))
    (|set.subseteq Z| (|interval| (+ s32$1 1) s33$1) s27$1)))
  :named |Define:inv:29|))
(assert (!
  (=>
  (= s29$1 s6)
  (|set.subseteq Z| (|interval| (+ s33$1 1) s23$1) (|set.union Z| (|set.union Z| (|set.union Z| s24$1 s25$1) s26$1) s27$1)))
  :named |Define:inv:30|))
(assert (!
  (=>
  (= s29$1 s6)
  (and
    (|set.in Z| s34$1 (|interval| s33$1 s23$1))
    (|set.in Z| s34$1 (|interval| (- s23$1 1) s23$1))
    (|set.subseteq Z| (|interval| (+ s33$1 1) s34$1) (|set.union Z| (|set.union Z| (|set.union Z| s24$1 s25$1) s26$1) s27$1))
    (|set.subseteq Z| (|interval| (+ s34$1 1) s23$1) s24$1)
    (not
      (|set.in Z| s34$1 s24$1))))
  :named |Define:inv:31|))
(assert (!
  (=>
  (= s29$1 s6)
  (not
    (|set.subseteq Z| (|interval| (- s23$1 1) s23$1) s24$1)))
  :named |Define:inv:32|))
(assert (!
  (=>
  (|set.in s0| s29$1 (|set.intent s0| (lambda ((_c0 |s0|)) (or (= _c0 s6)(= _c0 s7)))))
  (forall
    ((s35 |Z|)(s36 |Z|))
    (=>
      (and
        (|set.in Z| s35 (|interval| (+ s33$1 1) s23$1))
        (|set.in Z| s36 (|interval| (+ s33$1 1) s23$1))
        (|set.subseteq Z| (|interval| s35 s36) s24$1))
      (< (- s36 s35) s17))))
  :named |Define:inv:33|))
(assert (!
  (=>
  (|set.in s0| s29$1 (|set.intent s0| (lambda ((_c0 |s0|)) (or (= _c0 s6)(= _c0 s7)(= _c0 s8)))))
  (and
    (not
      (|set.in Z| (+ s33$1 1) s27$1))
    (< s33$1 s23$1)))
  :named |Define:inv:34|))
(assert (!
  (=>
  (|set.in s0| s29$1 (|set.intent s0| (lambda ((_c0 |s0|)) (or (= _c0 s7)(= _c0 s8)))))
  (and
    (|set.in Z| s34$1 (|interval| s33$1 s23$1))
    (|set.subseteq Z| (|interval| (+ s34$1 1) s23$1) s24$1)
    (|set.subseteq Z| (|interval| (+ s33$1 1) s34$1) (|set.union Z| (|set.union Z| (|set.union Z| s24$1 s25$1) s26$1) s27$1))))
  :named |Define:inv:35|))
(assert (!
  (=>
  (= s29$1 s7)
  (and
    (<= s34$1 s23$1)
    (not
      (|set.in Z| s34$1 s24$1))))
  :named |Define:inv:36|))
(assert (!
  (=>
  (= s29$1 s7)
  (<= (- (- s23$1 1) s34$1) s17))
  :named |Define:inv:37|))
(assert (!
  (=>
  (|set.in s0| s29$1 (|set.intent s0| (lambda ((_c0 |s0|)) (or (= _c0 s7)(= _c0 s8)))))
  (<= (- (- s34$1 s33$1) 1) s15))
  :named |Define:inv:38|))
(assert (!
  (=>
  (= s29$1 s8)
  (and
    (forall
      ((s35 |Z|)(s36 |Z|))
      (=>
        (and
          (|set.in Z| s35 (|interval| (+ s33$1 1) s34$1))
          (|set.in Z| s36 (|interval| (+ s33$1 1) s34$1))
          (|set.subseteq Z| (|interval| s35 s36) s24$1))
        (< (- s36 s35) s17)))
    (|set.in Z| (- (- s23$1 s34$1) 1) (|interval| s17 (+ s17 s16)))))
  :named |Define:inv:39|))
(assert (!
  (|set.in Z| s14 NAT)
  :named |Define:ctx:6|))
(assert (!
  (<= 1 s14)
  :named |Define:ctx:7|))
(assert (!
  (<= s14 254)
  :named |Define:ctx:8|))
(assert (!
  (= s14 s12)
  :named |Define:ctx:9|))
(assert (!
  (|set.in Z| s15 NAT)
  :named |Define:ctx:10|))
(assert (!
  (<= 1 s15)
  :named |Define:ctx:11|))
(assert (!
  (<= s15 254)
  :named |Define:ctx:12|))
(assert (!
  (= s15 s12)
  :named |Define:ctx:13|))
(assert (!
  (|set.in Z| s16 NAT)
  :named |Define:ctx:14|))
(assert (!
  (<= 1 s16)
  :named |Define:ctx:15|))
(assert (!
  (< s16 MAXINT)
  :named |Define:ctx:16|))
(assert (!
  (= s16 s13)
  :named |Define:ctx:17|))
(assert (!
  (|set.in Z| s17 NAT)
  :named |Define:ctx:18|))
(assert (!
  (<= 2 s17)
  :named |Define:ctx:19|))
(assert (!
  (= s17 s11)
  :named |Define:ctx:20|))
(assert (!
  (<= (+ s17 s15) 253)
  :named |Define:ctx:21|))
(assert (!
  (<= (+ (+ s17 s14) s15) 251)
  :named |Define:ctx:22|))
(assert (!
  (|set.in Z| s18 NAT)
  :named |Define:ctx:23|))
(assert (!
  (<= 1 s18)
  :named |Define:ctx:24|))
(assert (!
  (< s18 254)
  :named |Define:ctx:25|))
(assert (!
  (= s18 s11)
  :named |Define:ctx:26|))
(assert (!
  (|set.subseteq Z| s25$1 NATURAL)
  :named |Define:abs:6|))
(assert (!
  (|set.subseteq Z| s26$1 NATURAL)
  :named |Define:abs:7|))
(assert (!
  (|set.subseteq Z| s27$1 NATURAL)
  :named |Define:abs:8|))
(assert (!
  (= s25 s25$1)
  :named |Define:inv:5|))
(assert (!
  (= s26 s26$1)
  :named |Define:inv:6|))
(assert (!
  (= s27 s27$1)
  :named |Define:inv:7|))
(assert (!
  (|set.subseteq Z| s25$1 NATURAL)
  :named |Define:inv:11|))
(assert (!
  (|set.subseteq Z| s26$1 NATURAL)
  :named |Define:inv:12|))
(assert (!
  (|set.subseteq Z| s27$1 NATURAL)
  :named |Define:inv:13|))
(assert (!
  (|set.in Z| s30$1 NATURAL)
  :named |Define:inv:15|))
(assert (!
  (|set.in Z| s31$1 NATURAL)
  :named |Define:inv:16|))
(assert (!
  (|set.in Z| s32$1 NATURAL)
  :named |Define:inv:17|))
(assert (!
  (|set.in Z| s33$1 NATURAL)
  :named |Define:inv:18|))
(assert (!
  (|set.in Z| s34$1 NATURAL)
  :named |Define:inv:19|))
(assert (!
  (|set.in Z| s11 NAT)
  :named |Define:ctx:3|))
(assert (!
  (|set.in Z| s12 NAT)
  :named |Define:ctx:4|))
(assert (!
  (|set.in Z| s13 NAT)
  :named |Define:ctx:5|))
(assert (!
  (not
    (not
      (|set.subseteq Z| (|interval| (- (+ s23$1 1) 1) (+ s23$1 1)) s24$1)))
  :named |Goal|))
(check-sat)
(exit)
